SECTION Comment
Auto Generated file.
Name "Inst_8"
Problem "Stochastic Traveling Salesman Problem"
Dimension: 8
Scenarios: 2
END

SECTION Graph
Nodes 8
Edges 28
Scenarios 2
Root 0
E 2 1 594
E 3 1 4798
E 3 2 4203
E 4 1 2926
E 4 2 4071
E 4 3 0
E 5 1 3756
E 5 2 4646
E 5 3 0
E 5 4 2844
E 6 1 2529
E 6 2 982
E 6 3 0
E 6 4 59
E 6 5 3009
E 7 1 0
E 7 2 3080
E 7 3 269
E 7 4 810
E 7 5 3270
E 7 6 1144
E 8 1 0
E 8 2 1758
E 8 3 0
E 8 4 0
E 8 5 0
E 8 6 0
E 8 7 0
END

SECTION StochasticProbabilities
SP 0.8058497291740131 0.1941502708259869
END

SECTION StochasticWeights
SE 0 0
SE 0 0
SE 0 0
SE 0 0
SE 0 0
SE 2926 2748
SE 0 0
SE 0 0
SE 1429 3786
SE 0 0
SE 0 0
SE 0 0
SE 1902 2839
SE 0 0
SE 0 0
SE 4454 4796
SE 0 0
SE 0 0
SE 0 0
SE 0 0
SE 0 0
SE 693 746
SE 0 0
SE 3895 4670
SE 1556 2642
SE 3740 2252
SE 761 4129
SE 4980 390
END

SECTION StochasticTerminals
ST 1 1 1
ST 2 1 1
ST 3 1 1
ST 4 1 1
ST 5 1 1
ST 6 1 1
ST 7 1 1
ST 8 1 1
END

EOF
